<number of tasks>
50

<cycle time>
1000

<order strength>
0.195


<task times>
1 96
2 251
3 320
4 30
5 245
6 45
7 278
8 333
9 154
10 36
11 42
12 65
13 50
14 126
15 252
16 122
17 228
18 110
19 61
20 47
21 127
22 24
23 292
24 159
25 82
26 118
27 93
28 31
29 142
30 189
31 141
32 63
33 107
34 107
35 198
36 20
37 235
38 297
39 211
40 67
41 63
42 178
43 167
44 137
45 88
46 161
47 35
48 135
49 192
50 88

<precedence relations>
1,9
2,9
3,9
4,9
5,10
6,14
6,15
7,12
8,11
8,13
8,16
9,17
9,18
9,19
9,20
10,21
11,22
12,23
12,24
13,24
13,33
14,37
15,29
18,29
20,27
21,25
22,26
23,28
25,30
26,31
27,34
28,33
28,36
29,32
29,35
29,37
29,48
30,38
31,39
32,41
33,44
34,40
34,42
34,47
36,43
38,45
39,46
41,47
42,48
46,49
48,49
48,50

<end>
